; benchmark generated from python API
(set-info :status unknown)
(declare-fun cell_1_3 () Int)
(declare-fun cell_1_9 () Int)
(declare-fun cell_2_1 () Int)
(declare-fun cell_2_6 () Int)
(declare-fun cell_3_4 () Int)
(declare-fun cell_3_9 () Int)
(declare-fun cell_4_4 () Int)
(declare-fun cell_4_7 () Int)
(declare-fun cell_5_3 () Int)
(declare-fun cell_5_8 () Int)
(declare-fun cell_6_2 () Int)
(declare-fun cell_6_6 () Int)
(declare-fun cell_7_2 () Int)
(declare-fun cell_7_7 () Int)
(declare-fun cell_8_5 () Int)
(declare-fun cell_8_8 () Int)
(declare-fun cell_9_5 () Int)
(declare-fun cell_1_1 () Int)
(declare-fun cell_3_1 () Int)
(declare-fun cell_4_1 () Int)
(declare-fun cell_5_1 () Int)
(declare-fun cell_6_1 () Int)
(declare-fun cell_7_1 () Int)
(declare-fun cell_8_1 () Int)
(declare-fun cell_9_1 () Int)
(declare-fun cell_1_2 () Int)
(declare-fun cell_2_2 () Int)
(declare-fun cell_3_2 () Int)
(declare-fun cell_4_2 () Int)
(declare-fun cell_5_2 () Int)
(declare-fun cell_8_2 () Int)
(declare-fun cell_9_2 () Int)
(declare-fun cell_2_3 () Int)
(declare-fun cell_3_3 () Int)
(declare-fun cell_4_3 () Int)
(declare-fun cell_6_3 () Int)
(declare-fun cell_7_3 () Int)
(declare-fun cell_8_3 () Int)
(declare-fun cell_9_3 () Int)
(declare-fun cell_1_4 () Int)
(declare-fun cell_2_4 () Int)
(declare-fun cell_5_4 () Int)
(declare-fun cell_6_4 () Int)
(declare-fun cell_7_4 () Int)
(declare-fun cell_8_4 () Int)
(declare-fun cell_9_4 () Int)
(declare-fun cell_1_5 () Int)
(declare-fun cell_2_5 () Int)
(declare-fun cell_3_5 () Int)
(declare-fun cell_4_5 () Int)
(declare-fun cell_5_5 () Int)
(declare-fun cell_6_5 () Int)
(declare-fun cell_7_5 () Int)
(declare-fun cell_1_6 () Int)
(declare-fun cell_3_6 () Int)
(declare-fun cell_4_6 () Int)
(declare-fun cell_5_6 () Int)
(declare-fun cell_7_6 () Int)
(declare-fun cell_8_6 () Int)
(declare-fun cell_9_6 () Int)
(declare-fun cell_1_7 () Int)
(declare-fun cell_2_7 () Int)
(declare-fun cell_3_7 () Int)
(declare-fun cell_5_7 () Int)
(declare-fun cell_6_7 () Int)
(declare-fun cell_8_7 () Int)
(declare-fun cell_9_7 () Int)
(declare-fun cell_1_8 () Int)
(declare-fun cell_2_8 () Int)
(declare-fun cell_3_8 () Int)
(declare-fun cell_4_8 () Int)
(declare-fun cell_6_8 () Int)
(declare-fun cell_7_8 () Int)
(declare-fun cell_9_8 () Int)
(declare-fun cell_2_9 () Int)
(declare-fun cell_4_9 () Int)
(declare-fun cell_5_9 () Int)
(declare-fun cell_6_9 () Int)
(declare-fun cell_7_9 () Int)
(declare-fun cell_8_9 () Int)
(declare-fun cell_9_9 () Int)
(assert
 (= cell_1_3 2))
(assert
 (= cell_1_9 1))
(assert
 (= cell_2_1 1))
(assert
 (= cell_2_6 2))
(assert
 (= cell_3_4 1))
(assert
 (= cell_3_9 2))
(assert
 (= cell_4_4 2))
(assert
 (= cell_4_7 1))
(assert
 (= cell_5_3 1))
(assert
 (= cell_5_8 2))
(assert
 (= cell_6_2 2))
(assert
 (= cell_6_6 1))
(assert
 (= cell_7_2 1))
(assert
 (= cell_7_7 2))
(assert
 (= cell_8_5 2))
(assert
 (= cell_8_8 1))
(assert
 (= cell_9_5 1))
(assert
 (let (($x2568 (= cell_1_1 9)))
 (let (($x1274 (= cell_1_1 8)))
 (let (($x439 (= cell_1_1 7)))
 (let (($x452 (= cell_1_1 6)))
 (let (($x697 (= cell_1_1 5)))
 (let (($x2347 (= cell_1_1 4)))
 (let (($x482 (= cell_1_1 3)))
 (let (($x2456 (= cell_1_1 2)))
 (let (($x1847 (= cell_1_1 1)))
 (or $x1847 $x2456 $x482 $x2347 $x697 $x452 $x439 $x1274 $x2568)))))))))))
(assert
 (let (($x2211 (= cell_2_1 1)))
 (or $x2211 (= cell_2_1 2) (= cell_2_1 3) (= cell_2_1 4) (= cell_2_1 5) (= cell_2_1 6) (= cell_2_1 7) (= cell_2_1 8) (= cell_2_1 9))))
(assert
 (let (($x625 (= cell_3_1 9)))
 (let (($x1000 (= cell_3_1 8)))
 (let (($x996 (= cell_3_1 7)))
 (let (($x608 (= cell_3_1 6)))
 (let (($x3129 (= cell_3_1 5)))
 (let (($x2076 (= cell_3_1 4)))
 (let (($x3715 (= cell_3_1 3)))
 (let (($x2254 (= cell_3_1 2)))
 (let (($x1403 (= cell_3_1 1)))
 (or $x1403 $x2254 $x3715 $x2076 $x3129 $x608 $x996 $x1000 $x625)))))))))))
(assert
 (let (($x448 (= cell_4_1 9)))
 (let (($x1907 (= cell_4_1 8)))
 (let (($x2349 (= cell_4_1 7)))
 (let (($x2292 (= cell_4_1 6)))
 (let (($x3827 (= cell_4_1 5)))
 (let (($x2674 (= cell_4_1 4)))
 (let (($x365 (= cell_4_1 3)))
 (let (($x4162 (= cell_4_1 2)))
 (let (($x3314 (= cell_4_1 1)))
 (or $x3314 $x4162 $x365 $x2674 $x3827 $x2292 $x2349 $x1907 $x448)))))))))))
(assert
 (let (($x3210 (= cell_5_1 9)))
 (let (($x2201 (= cell_5_1 8)))
 (let (($x3985 (= cell_5_1 7)))
 (let (($x7770 (= cell_5_1 6)))
 (let (($x3674 (= cell_5_1 5)))
 (let (($x3384 (= cell_5_1 4)))
 (let (($x850 (= cell_5_1 3)))
 (let (($x2650 (= cell_5_1 2)))
 (let (($x3215 (= cell_5_1 1)))
 (or $x3215 $x2650 $x850 $x3384 $x3674 $x7770 $x3985 $x2201 $x3210)))))))))))
(assert
 (let (($x4082 (= cell_6_1 9)))
 (let (($x11 (= cell_6_1 8)))
 (let (($x40 (= cell_6_1 7)))
 (let (($x7788 (= cell_6_1 6)))
 (let (($x451 (= cell_6_1 5)))
 (let (($x1061 (= cell_6_1 4)))
 (let (($x922 (= cell_6_1 3)))
 (let (($x2914 (= cell_6_1 2)))
 (let (($x245 (= cell_6_1 1)))
 (or $x245 $x2914 $x922 $x1061 $x451 $x7788 $x40 $x11 $x4082)))))))))))
(assert
 (let (($x1344 (= cell_7_1 9)))
 (let (($x746 (= cell_7_1 8)))
 (let (($x3117 (= cell_7_1 7)))
 (let (($x1354 (= cell_7_1 6)))
 (let (($x3531 (= cell_7_1 5)))
 (let (($x874 (= cell_7_1 4)))
 (let (($x2004 (= cell_7_1 3)))
 (let (($x2339 (= cell_7_1 2)))
 (let (($x1775 (= cell_7_1 1)))
 (or $x1775 $x2339 $x2004 $x874 $x3531 $x1354 $x3117 $x746 $x1344)))))))))))
(assert
 (let (($x1517 (= cell_8_1 9)))
 (let (($x3453 (= cell_8_1 8)))
 (let (($x2884 (= cell_8_1 7)))
 (let (($x2445 (= cell_8_1 6)))
 (let (($x4119 (= cell_8_1 5)))
 (let (($x2193 (= cell_8_1 4)))
 (let (($x2003 (= cell_8_1 3)))
 (let (($x3274 (= cell_8_1 2)))
 (let (($x907 (= cell_8_1 1)))
 (or $x907 $x3274 $x2003 $x2193 $x4119 $x2445 $x2884 $x3453 $x1517)))))))))))
(assert
 (let (($x2510 (= cell_9_1 9)))
 (let (($x1965 (= cell_9_1 8)))
 (let (($x3236 (= cell_9_1 7)))
 (let (($x3339 (= cell_9_1 6)))
 (let (($x3094 (= cell_9_1 5)))
 (let (($x7851 (= cell_9_1 4)))
 (let (($x2086 (= cell_9_1 3)))
 (let (($x2437 (= cell_9_1 2)))
 (let (($x2068 (= cell_9_1 1)))
 (or $x2068 $x2437 $x2086 $x7851 $x3094 $x3339 $x3236 $x1965 $x2510)))))))))))
(assert
 (let (($x2641 (= cell_1_2 9)))
 (let (($x839 (= cell_1_2 8)))
 (let (($x1251 (= cell_1_2 7)))
 (let (($x2417 (= cell_1_2 6)))
 (let (($x484 (= cell_1_2 5)))
 (let (($x83 (= cell_1_2 4)))
 (let (($x2789 (= cell_1_2 3)))
 (let (($x3047 (= cell_1_2 2)))
 (let (($x2441 (= cell_1_2 1)))
 (or $x2441 $x3047 $x2789 $x83 $x484 $x2417 $x1251 $x839 $x2641)))))))))))
(assert
 (let (($x2142 (= cell_2_2 9)))
 (let (($x2771 (= cell_2_2 8)))
 (let (($x633 (= cell_2_2 7)))
 (let (($x1004 (= cell_2_2 6)))
 (let (($x3835 (= cell_2_2 5)))
 (let (($x793 (= cell_2_2 4)))
 (let (($x6753 (= cell_2_2 3)))
 (let (($x3184 (= cell_2_2 2)))
 (let (($x3103 (= cell_2_2 1)))
 (or $x3103 $x3184 $x6753 $x793 $x3835 $x1004 $x633 $x2771 $x2142)))))))))))
(assert
 (let (($x116 (= cell_3_2 9)))
 (let (($x7819 (= cell_3_2 8)))
 (let (($x841 (= cell_3_2 7)))
 (let (($x3881 (= cell_3_2 6)))
 (let (($x6713 (= cell_3_2 5)))
 (let (($x2015 (= cell_3_2 4)))
 (let (($x2943 (= cell_3_2 3)))
 (let (($x1328 (= cell_3_2 2)))
 (let (($x177 (= cell_3_2 1)))
 (or $x177 $x1328 $x2943 $x2015 $x6713 $x3881 $x841 $x7819 $x116)))))))))))
(assert
 (let (($x579 (= cell_4_2 9)))
 (let (($x2488 (= cell_4_2 8)))
 (let (($x2620 (= cell_4_2 7)))
 (let (($x3041 (= cell_4_2 6)))
 (let (($x446 (= cell_4_2 5)))
 (let (($x3144 (= cell_4_2 4)))
 (let (($x33 (= cell_4_2 3)))
 (let (($x3432 (= cell_4_2 2)))
 (let (($x727 (= cell_4_2 1)))
 (or $x727 $x3432 $x33 $x3144 $x446 $x3041 $x2620 $x2488 $x579)))))))))))
(assert
 (let (($x472 (= cell_5_2 9)))
 (let (($x2847 (= cell_5_2 8)))
 (let (($x3720 (= cell_5_2 7)))
 (let (($x2579 (= cell_5_2 6)))
 (let (($x1946 (= cell_5_2 5)))
 (let (($x7670 (= cell_5_2 4)))
 (let (($x3591 (= cell_5_2 3)))
 (let (($x2259 (= cell_5_2 2)))
 (let (($x3702 (= cell_5_2 1)))
 (or $x3702 $x2259 $x3591 $x7670 $x1946 $x2579 $x3720 $x2847 $x472)))))))))))
(assert
 (let (($x3570 (= cell_6_2 2)))
 (or (= cell_6_2 1) $x3570 (= cell_6_2 3) (= cell_6_2 4) (= cell_6_2 5) (= cell_6_2 6) (= cell_6_2 7) (= cell_6_2 8) (= cell_6_2 9))))
(assert
 (let (($x595 (= cell_7_2 1)))
 (or $x595 (= cell_7_2 2) (= cell_7_2 3) (= cell_7_2 4) (= cell_7_2 5) (= cell_7_2 6) (= cell_7_2 7) (= cell_7_2 8) (= cell_7_2 9))))
(assert
 (let (($x2106 (= cell_8_2 9)))
 (let (($x3006 (= cell_8_2 8)))
 (let (($x1886 (= cell_8_2 7)))
 (let (($x386 (= cell_8_2 6)))
 (let (($x2222 (= cell_8_2 5)))
 (let (($x2319 (= cell_8_2 4)))
 (let (($x1246 (= cell_8_2 3)))
 (let (($x54 (= cell_8_2 2)))
 (let (($x1654 (= cell_8_2 1)))
 (or $x1654 $x54 $x1246 $x2319 $x2222 $x386 $x1886 $x3006 $x2106)))))))))))
(assert
 (let (($x7685 (= cell_9_2 9)))
 (let (($x22 (= cell_9_2 8)))
 (let (($x909 (= cell_9_2 7)))
 (let (($x832 (= cell_9_2 6)))
 (let (($x2529 (= cell_9_2 5)))
 (let (($x2499 (= cell_9_2 4)))
 (let (($x2229 (= cell_9_2 3)))
 (let (($x751 (= cell_9_2 2)))
 (let (($x3837 (= cell_9_2 1)))
 (or $x3837 $x751 $x2229 $x2499 $x2529 $x832 $x909 $x22 $x7685)))))))))))
(assert
 (let (($x1047 (= cell_1_3 2)))
 (or (= cell_1_3 1) $x1047 (= cell_1_3 3) (= cell_1_3 4) (= cell_1_3 5) (= cell_1_3 6) (= cell_1_3 7) (= cell_1_3 8) (= cell_1_3 9))))
(assert
 (let (($x2668 (= cell_2_3 9)))
 (let (($x3794 (= cell_2_3 8)))
 (let (($x2016 (= cell_2_3 7)))
 (let (($x1812 (= cell_2_3 6)))
 (let (($x613 (= cell_2_3 5)))
 (let (($x1758 (= cell_2_3 4)))
 (let (($x1995 (= cell_2_3 3)))
 (let (($x3940 (= cell_2_3 2)))
 (let (($x565 (= cell_2_3 1)))
 (or $x565 $x3940 $x1995 $x1758 $x613 $x1812 $x2016 $x3794 $x2668)))))))))))
(assert
 (let (($x954 (= cell_3_3 9)))
 (let (($x1768 (= cell_3_3 8)))
 (let (($x3669 (= cell_3_3 7)))
 (let (($x2918 (= cell_3_3 6)))
 (let (($x1757 (= cell_3_3 5)))
 (let (($x835 (= cell_3_3 4)))
 (let (($x3664 (= cell_3_3 3)))
 (let (($x1868 (= cell_3_3 2)))
 (let (($x3083 (= cell_3_3 1)))
 (or $x3083 $x1868 $x3664 $x835 $x1757 $x2918 $x3669 $x1768 $x954)))))))))))
(assert
 (let (($x1541 (= cell_4_3 9)))
 (let (($x540 (= cell_4_3 8)))
 (let (($x1226 (= cell_4_3 7)))
 (let (($x7776 (= cell_4_3 6)))
 (let (($x868 (= cell_4_3 5)))
 (let (($x2741 (= cell_4_3 4)))
 (let (($x1716 (= cell_4_3 3)))
 (let (($x3457 (= cell_4_3 2)))
 (let (($x7643 (= cell_4_3 1)))
 (or $x7643 $x3457 $x1716 $x2741 $x868 $x7776 $x1226 $x540 $x1541)))))))))))
(assert
 (let (($x3180 (= cell_5_3 1)))
 (or $x3180 (= cell_5_3 2) (= cell_5_3 3) (= cell_5_3 4) (= cell_5_3 5) (= cell_5_3 6) (= cell_5_3 7) (= cell_5_3 8) (= cell_5_3 9))))
(assert
 (let (($x2750 (= cell_6_3 9)))
 (let (($x525 (= cell_6_3 8)))
 (let (($x2336 (= cell_6_3 7)))
 (let (($x1518 (= cell_6_3 6)))
 (let (($x1236 (= cell_6_3 5)))
 (let (($x1230 (= cell_6_3 4)))
 (let (($x7789 (= cell_6_3 3)))
 (let (($x3469 (= cell_6_3 2)))
 (let (($x2637 (= cell_6_3 1)))
 (or $x2637 $x3469 $x7789 $x1230 $x1236 $x1518 $x2336 $x525 $x2750)))))))))))
(assert
 (let (($x2783 (= cell_7_3 9)))
 (let (($x235 (= cell_7_3 8)))
 (let (($x671 (= cell_7_3 7)))
 (let (($x1347 (= cell_7_3 6)))
 (let (($x1211 (= cell_7_3 5)))
 (let (($x1636 (= cell_7_3 4)))
 (let (($x2029 (= cell_7_3 3)))
 (let (($x167 (= cell_7_3 2)))
 (let (($x1604 (= cell_7_3 1)))
 (or $x1604 $x167 $x2029 $x1636 $x1211 $x1347 $x671 $x235 $x2783)))))))))))
(assert
 (let (($x1481 (= cell_8_3 9)))
 (let (($x3183 (= cell_8_3 8)))
 (let (($x7666 (= cell_8_3 7)))
 (let (($x1093 (= cell_8_3 6)))
 (let (($x3763 (= cell_8_3 5)))
 (let (($x2670 (= cell_8_3 4)))
 (let (($x3366 (= cell_8_3 3)))
 (let (($x1392 (= cell_8_3 2)))
 (let (($x1466 (= cell_8_3 1)))
 (or $x1466 $x1392 $x3366 $x2670 $x3763 $x1093 $x7666 $x3183 $x1481)))))))))))
(assert
 (let (($x49 (= cell_9_3 9)))
 (let (($x1501 (= cell_9_3 8)))
 (let (($x26 (= cell_9_3 7)))
 (let (($x3205 (= cell_9_3 6)))
 (let (($x6988 (= cell_9_3 5)))
 (let (($x7875 (= cell_9_3 4)))
 (let (($x31 (= cell_9_3 3)))
 (let (($x2606 (= cell_9_3 2)))
 (let (($x308 (= cell_9_3 1)))
 (or $x308 $x2606 $x31 $x7875 $x6988 $x3205 $x26 $x1501 $x49)))))))))))
(assert
 (let (($x404 (= cell_1_4 9)))
 (let (($x2968 (= cell_1_4 8)))
 (let (($x1135 (= cell_1_4 7)))
 (let (($x80 (= cell_1_4 6)))
 (let (($x3372 (= cell_1_4 5)))
 (let (($x642 (= cell_1_4 4)))
 (let (($x2610 (= cell_1_4 3)))
 (let (($x61 (= cell_1_4 2)))
 (let (($x1196 (= cell_1_4 1)))
 (or $x1196 $x61 $x2610 $x642 $x3372 $x80 $x1135 $x2968 $x404)))))))))))
(assert
 (let (($x2199 (= cell_2_4 9)))
 (let (($x2570 (= cell_2_4 8)))
 (let (($x112 (= cell_2_4 7)))
 (let (($x3575 (= cell_2_4 6)))
 (let (($x2557 (= cell_2_4 5)))
 (let (($x2098 (= cell_2_4 4)))
 (let (($x4243 (= cell_2_4 3)))
 (let (($x1838 (= cell_2_4 2)))
 (let (($x1091 (= cell_2_4 1)))
 (or $x1091 $x1838 $x4243 $x2098 $x2557 $x3575 $x112 $x2570 $x2199)))))))))))
(assert
 (let (($x1557 (= cell_3_4 1)))
 (or $x1557 (= cell_3_4 2) (= cell_3_4 3) (= cell_3_4 4) (= cell_3_4 5) (= cell_3_4 6) (= cell_3_4 7) (= cell_3_4 8) (= cell_3_4 9))))
(assert
 (let (($x580 (= cell_4_4 2)))
 (or (= cell_4_4 1) $x580 (= cell_4_4 3) (= cell_4_4 4) (= cell_4_4 5) (= cell_4_4 6) (= cell_4_4 7) (= cell_4_4 8) (= cell_4_4 9))))
(assert
 (let (($x2028 (= cell_5_4 9)))
 (let (($x1422 (= cell_5_4 8)))
 (let (($x3326 (= cell_5_4 7)))
 (let (($x1465 (= cell_5_4 6)))
 (let (($x1845 (= cell_5_4 5)))
 (let (($x51 (= cell_5_4 4)))
 (let (($x3231 (= cell_5_4 3)))
 (let (($x3232 (= cell_5_4 2)))
 (let (($x1075 (= cell_5_4 1)))
 (or $x1075 $x3232 $x3231 $x51 $x1845 $x1465 $x3326 $x1422 $x2028)))))))))))
(assert
 (let (($x271 (= cell_6_4 9)))
 (let (($x2172 (= cell_6_4 8)))
 (let (($x2272 (= cell_6_4 7)))
 (let (($x326 (= cell_6_4 6)))
 (let (($x3711 (= cell_6_4 5)))
 (let (($x2681 (= cell_6_4 4)))
 (let (($x3713 (= cell_6_4 3)))
 (let (($x586 (= cell_6_4 2)))
 (let (($x3739 (= cell_6_4 1)))
 (or $x3739 $x586 $x3713 $x2681 $x3711 $x326 $x2272 $x2172 $x271)))))))))))
(assert
 (let (($x6858 (= cell_7_4 9)))
 (let (($x3406 (= cell_7_4 8)))
 (let (($x3330 (= cell_7_4 7)))
 (let (($x2818 (= cell_7_4 6)))
 (let (($x2786 (= cell_7_4 5)))
 (let (($x2009 (= cell_7_4 4)))
 (let (($x856 (= cell_7_4 3)))
 (let (($x731 (= cell_7_4 2)))
 (let (($x1666 (= cell_7_4 1)))
 (or $x1666 $x731 $x856 $x2009 $x2786 $x2818 $x3330 $x3406 $x6858)))))))))))
(assert
 (let (($x2634 (= cell_8_4 9)))
 (let (($x2929 (= cell_8_4 8)))
 (let (($x7822 (= cell_8_4 7)))
 (let (($x4156 (= cell_8_4 6)))
 (let (($x750 (= cell_8_4 5)))
 (let (($x4124 (= cell_8_4 4)))
 (let (($x3080 (= cell_8_4 3)))
 (let (($x1581 (= cell_8_4 2)))
 (let (($x1610 (= cell_8_4 1)))
 (or $x1610 $x1581 $x3080 $x4124 $x750 $x4156 $x7822 $x2929 $x2634)))))))))))
(assert
 (let (($x1899 (= cell_9_4 9)))
 (let (($x2243 (= cell_9_4 8)))
 (let (($x1272 (= cell_9_4 7)))
 (let (($x3203 (= cell_9_4 6)))
 (let (($x4247 (= cell_9_4 5)))
 (let (($x694 (= cell_9_4 4)))
 (let (($x7044 (= cell_9_4 3)))
 (let (($x2883 (= cell_9_4 2)))
 (let (($x3626 (= cell_9_4 1)))
 (or $x3626 $x2883 $x7044 $x694 $x4247 $x3203 $x1272 $x2243 $x1899)))))))))))
(assert
 (let (($x2153 (= cell_1_5 9)))
 (let (($x2542 (= cell_1_5 8)))
 (let (($x2958 (= cell_1_5 7)))
 (let (($x1284 (= cell_1_5 6)))
 (let (($x2743 (= cell_1_5 5)))
 (let (($x1164 (= cell_1_5 4)))
 (let (($x1791 (= cell_1_5 3)))
 (let (($x2722 (= cell_1_5 2)))
 (let (($x2621 (= cell_1_5 1)))
 (or $x2621 $x2722 $x1791 $x1164 $x2743 $x1284 $x2958 $x2542 $x2153)))))))))))
(assert
 (let (($x481 (= cell_2_5 9)))
 (let (($x763 (= cell_2_5 8)))
 (let (($x2642 (= cell_2_5 7)))
 (let (($x1821 (= cell_2_5 6)))
 (let (($x1703 (= cell_2_5 5)))
 (let (($x2244 (= cell_2_5 4)))
 (let (($x1255 (= cell_2_5 3)))
 (let (($x1268 (= cell_2_5 2)))
 (let (($x916 (= cell_2_5 1)))
 (or $x916 $x1268 $x1255 $x2244 $x1703 $x1821 $x2642 $x763 $x481)))))))))))
(assert
 (let (($x1192 (= cell_3_5 9)))
 (let (($x2810 (= cell_3_5 8)))
 (let (($x2148 (= cell_3_5 7)))
 (let (($x1382 (= cell_3_5 6)))
 (let (($x1664 (= cell_3_5 5)))
 (let (($x2762 (= cell_3_5 4)))
 (let (($x1410 (= cell_3_5 3)))
 (let (($x1042 (= cell_3_5 2)))
 (let (($x2383 (= cell_3_5 1)))
 (or $x2383 $x1042 $x1410 $x2762 $x1664 $x1382 $x2148 $x2810 $x1192)))))))))))
(assert
 (let (($x152 (= cell_4_5 9)))
 (let (($x2116 (= cell_4_5 8)))
 (let (($x1165 (= cell_4_5 7)))
 (let (($x2426 (= cell_4_5 6)))
 (let (($x1315 (= cell_4_5 5)))
 (let (($x2546 (= cell_4_5 4)))
 (let (($x3390 (= cell_4_5 3)))
 (let (($x1057 (= cell_4_5 2)))
 (let (($x3145 (= cell_4_5 1)))
 (or $x3145 $x1057 $x3390 $x2546 $x1315 $x2426 $x1165 $x2116 $x152)))))))))))
(assert
 (let (($x3445 (= cell_5_5 9)))
 (let (($x7674 (= cell_5_5 8)))
 (let (($x4224 (= cell_5_5 7)))
 (let (($x806 (= cell_5_5 6)))
 (let (($x2037 (= cell_5_5 5)))
 (let (($x6981 (= cell_5_5 4)))
 (let (($x229 (= cell_5_5 3)))
 (let (($x1551 (= cell_5_5 2)))
 (let (($x3724 (= cell_5_5 1)))
 (or $x3724 $x1551 $x229 $x6981 $x2037 $x806 $x4224 $x7674 $x3445)))))))))))
(assert
 (let (($x320 (= cell_6_5 9)))
 (let (($x8008 (= cell_6_5 8)))
 (let (($x21 (= cell_6_5 7)))
 (let (($x3789 (= cell_6_5 6)))
 (let (($x1206 (= cell_6_5 5)))
 (let (($x339 (= cell_6_5 4)))
 (let (($x3121 (= cell_6_5 3)))
 (let (($x622 (= cell_6_5 2)))
 (let (($x2473 (= cell_6_5 1)))
 (or $x2473 $x622 $x3121 $x339 $x1206 $x3789 $x21 $x8008 $x320)))))))))))
(assert
 (let (($x3665 (= cell_7_5 9)))
 (let (($x3782 (= cell_7_5 8)))
 (let (($x2119 (= cell_7_5 7)))
 (let (($x1734 (= cell_7_5 6)))
 (let (($x30 (= cell_7_5 5)))
 (let (($x2740 (= cell_7_5 4)))
 (let (($x1166 (= cell_7_5 3)))
 (let (($x1411 (= cell_7_5 2)))
 (let (($x1990 (= cell_7_5 1)))
 (or $x1990 $x1411 $x1166 $x2740 $x30 $x1734 $x2119 $x3782 $x3665)))))))))))
(assert
 (let (($x955 (= cell_8_5 2)))
 (or (= cell_8_5 1) $x955 (= cell_8_5 3) (= cell_8_5 4) (= cell_8_5 5) (= cell_8_5 6) (= cell_8_5 7) (= cell_8_5 8) (= cell_8_5 9))))
(assert
 (let (($x776 (= cell_9_5 1)))
 (or $x776 (= cell_9_5 2) (= cell_9_5 3) (= cell_9_5 4) (= cell_9_5 5) (= cell_9_5 6) (= cell_9_5 7) (= cell_9_5 8) (= cell_9_5 9))))
(assert
 (let (($x3767 (= cell_1_6 9)))
 (let (($x742 (= cell_1_6 8)))
 (let (($x53 (= cell_1_6 7)))
 (let (($x1854 (= cell_1_6 6)))
 (let (($x1783 (= cell_1_6 5)))
 (let (($x1621 (= cell_1_6 4)))
 (let (($x2355 (= cell_1_6 3)))
 (let (($x1647 (= cell_1_6 2)))
 (let (($x1831 (= cell_1_6 1)))
 (or $x1831 $x1647 $x2355 $x1621 $x1783 $x1854 $x53 $x742 $x3767)))))))))))
(assert
 (let (($x4008 (= cell_2_6 2)))
 (or (= cell_2_6 1) $x4008 (= cell_2_6 3) (= cell_2_6 4) (= cell_2_6 5) (= cell_2_6 6) (= cell_2_6 7) (= cell_2_6 8) (= cell_2_6 9))))
(assert
 (let (($x3610 (= cell_3_6 9)))
 (let (($x2707 (= cell_3_6 8)))
 (let (($x2615 (= cell_3_6 7)))
 (let (($x3971 (= cell_3_6 6)))
 (let (($x3606 (= cell_3_6 5)))
 (let (($x359 (= cell_3_6 4)))
 (let (($x997 (= cell_3_6 3)))
 (let (($x979 (= cell_3_6 2)))
 (let (($x1987 (= cell_3_6 1)))
 (or $x1987 $x979 $x997 $x359 $x3606 $x3971 $x2615 $x2707 $x3610)))))))))))
(assert
 (let (($x3916 (= cell_4_6 9)))
 (let (($x8011 (= cell_4_6 8)))
 (let (($x648 (= cell_4_6 7)))
 (let (($x273 (= cell_4_6 6)))
 (let (($x469 (= cell_4_6 5)))
 (let (($x584 (= cell_4_6 4)))
 (let (($x3779 (= cell_4_6 3)))
 (let (($x224 (= cell_4_6 2)))
 (let (($x529 (= cell_4_6 1)))
 (or $x529 $x224 $x3779 $x584 $x469 $x273 $x648 $x8011 $x3916)))))))))))
(assert
 (let (($x2794 (= cell_5_6 9)))
 (let (($x783 (= cell_5_6 8)))
 (let (($x4179 (= cell_5_6 7)))
 (let (($x174 (= cell_5_6 6)))
 (let (($x4189 (= cell_5_6 5)))
 (let (($x2048 (= cell_5_6 4)))
 (let (($x1326 (= cell_5_6 3)))
 (let (($x1395 (= cell_5_6 2)))
 (let (($x1369 (= cell_5_6 1)))
 (or $x1369 $x1395 $x1326 $x2048 $x4189 $x174 $x4179 $x783 $x2794)))))))))))
(assert
 (let (($x1830 (= cell_6_6 1)))
 (or $x1830 (= cell_6_6 2) (= cell_6_6 3) (= cell_6_6 4) (= cell_6_6 5) (= cell_6_6 6) (= cell_6_6 7) (= cell_6_6 8) (= cell_6_6 9))))
(assert
 (let (($x863 (= cell_7_6 9)))
 (let (($x883 (= cell_7_6 8)))
 (let (($x3295 (= cell_7_6 7)))
 (let (($x513 (= cell_7_6 6)))
 (let (($x2892 (= cell_7_6 5)))
 (let (($x1406 (= cell_7_6 4)))
 (let (($x1012 (= cell_7_6 3)))
 (let (($x2516 (= cell_7_6 2)))
 (let (($x1626 (= cell_7_6 1)))
 (or $x1626 $x2516 $x1012 $x1406 $x2892 $x513 $x3295 $x883 $x863)))))))))))
(assert
 (let (($x2705 (= cell_8_6 9)))
 (let (($x910 (= cell_8_6 8)))
 (let (($x2886 (= cell_8_6 7)))
 (let (($x1262 (= cell_8_6 6)))
 (let (($x724 (= cell_8_6 5)))
 (let (($x1363 (= cell_8_6 4)))
 (let (($x2063 (= cell_8_6 3)))
 (let (($x3647 (= cell_8_6 2)))
 (let (($x953 (= cell_8_6 1)))
 (or $x953 $x3647 $x2063 $x1363 $x724 $x1262 $x2886 $x910 $x2705)))))))))))
(assert
 (let (($x1735 (= cell_9_6 2)))
 (let (($x3340 (= cell_9_6 1)))
 (or $x3340 $x1735 (= cell_9_6 3) (= cell_9_6 4) (= cell_9_6 5) (= cell_9_6 6) (= cell_9_6 7) (= cell_9_6 8) (= cell_9_6 9)))))
(assert
 (let (($x3847 (= cell_1_7 9)))
 (let (($x3832 (= cell_1_7 8)))
 (let (($x6733 (= cell_1_7 7)))
 (let (($x3478 (= cell_1_7 6)))
 (let (($x931 (= cell_1_7 5)))
 (let (($x19 (= cell_1_7 4)))
 (let (($x1919 (= cell_1_7 3)))
 (let (($x4093 (= cell_1_7 2)))
 (let (($x822 (= cell_1_7 1)))
 (or $x822 $x4093 $x1919 $x19 $x931 $x3478 $x6733 $x3832 $x3847)))))))))))
(assert
 (let (($x269 (= cell_2_7 9)))
 (let (($x1530 (= cell_2_7 8)))
 (let (($x1709 (= cell_2_7 7)))
 (let (($x528 (= cell_2_7 6)))
 (let (($x3293 (= cell_2_7 5)))
 (let (($x2599 (= cell_2_7 4)))
 (let (($x4092 (= cell_2_7 3)))
 (let (($x3190 (= cell_2_7 2)))
 (let (($x714 (= cell_2_7 1)))
 (or $x714 $x3190 $x4092 $x2599 $x3293 $x528 $x1709 $x1530 $x269)))))))))))
(assert
 (let (($x1833 (= cell_3_7 9)))
 (let (($x170 (= cell_3_7 8)))
 (let (($x1239 (= cell_3_7 7)))
 (let (($x3034 (= cell_3_7 6)))
 (let (($x1984 (= cell_3_7 5)))
 (let (($x2509 (= cell_3_7 4)))
 (let (($x774 (= cell_3_7 3)))
 (let (($x612 (= cell_3_7 2)))
 (let (($x1350 (= cell_3_7 1)))
 (or $x1350 $x612 $x774 $x2509 $x1984 $x3034 $x1239 $x170 $x1833)))))))))))
(assert
 (let (($x2569 (= cell_4_7 1)))
 (or $x2569 (= cell_4_7 2) (= cell_4_7 3) (= cell_4_7 4) (= cell_4_7 5) (= cell_4_7 6) (= cell_4_7 7) (= cell_4_7 8) (= cell_4_7 9))))
(assert
 (let (($x125 (= cell_5_7 9)))
 (let (($x2078 (= cell_5_7 8)))
 (let (($x2428 (= cell_5_7 7)))
 (let (($x2053 (= cell_5_7 6)))
 (let (($x3849 (= cell_5_7 5)))
 (let (($x3716 (= cell_5_7 4)))
 (let (($x292 (= cell_5_7 3)))
 (let (($x1851 (= cell_5_7 2)))
 (let (($x2478 (= cell_5_7 1)))
 (or $x2478 $x1851 $x292 $x3716 $x3849 $x2053 $x2428 $x2078 $x125)))))))))))
(assert
 (let (($x574 (= cell_6_7 9)))
 (let (($x7047 (= cell_6_7 8)))
 (let (($x2297 (= cell_6_7 7)))
 (let (($x3119 (= cell_6_7 6)))
 (let (($x1651 (= cell_6_7 5)))
 (let (($x1031 (= cell_6_7 4)))
 (let (($x1064 (= cell_6_7 3)))
 (let (($x3100 (= cell_6_7 2)))
 (let (($x1285 (= cell_6_7 1)))
 (or $x1285 $x3100 $x1064 $x1031 $x1651 $x3119 $x2297 $x7047 $x574)))))))))))
(assert
 (let (($x2698 (= cell_7_7 2)))
 (or (= cell_7_7 1) $x2698 (= cell_7_7 3) (= cell_7_7 4) (= cell_7_7 5) (= cell_7_7 6) (= cell_7_7 7) (= cell_7_7 8) (= cell_7_7 9))))
(assert
 (let (($x1171 (= cell_8_7 9)))
 (let (($x1444 (= cell_8_7 8)))
 (let (($x1568 (= cell_8_7 7)))
 (let (($x2544 (= cell_8_7 6)))
 (let (($x2994 (= cell_8_7 5)))
 (let (($x4228 (= cell_8_7 4)))
 (let (($x7999 (= cell_8_7 3)))
 (let (($x281 (= cell_8_7 2)))
 (let (($x894 (= cell_8_7 1)))
 (or $x894 $x281 $x7999 $x4228 $x2994 $x2544 $x1568 $x1444 $x1171)))))))))))
(assert
 (let (($x1715 (= cell_9_7 2)))
 (let (($x3870 (= cell_9_7 1)))
 (or $x3870 $x1715 (= cell_9_7 3) (= cell_9_7 4) (= cell_9_7 5) (= cell_9_7 6) (= cell_9_7 7) (= cell_9_7 8) (= cell_9_7 9)))))
(assert
 (let (($x2077 (= cell_1_8 9)))
 (let (($x1143 (= cell_1_8 8)))
 (let (($x3762 (= cell_1_8 7)))
 (let (($x651 (= cell_1_8 6)))
 (let (($x1889 (= cell_1_8 5)))
 (let (($x1013 (= cell_1_8 4)))
 (let (($x1383 (= cell_1_8 3)))
 (let (($x2434 (= cell_1_8 2)))
 (let (($x1607 (= cell_1_8 1)))
 (or $x1607 $x2434 $x1383 $x1013 $x1889 $x651 $x3762 $x1143 $x2077)))))))))))
(assert
 (let (($x820 (= cell_2_8 9)))
 (let (($x3628 (= cell_2_8 8)))
 (let (($x1742 (= cell_2_8 7)))
 (let (($x3562 (= cell_2_8 6)))
 (let (($x3773 (= cell_2_8 5)))
 (let (($x637 (= cell_2_8 4)))
 (let (($x3153 (= cell_2_8 3)))
 (let (($x3838 (= cell_2_8 2)))
 (let (($x1121 (= cell_2_8 1)))
 (or $x1121 $x3838 $x3153 $x637 $x3773 $x3562 $x1742 $x3628 $x820)))))))))))
(assert
 (let (($x3380 (= cell_3_8 9)))
 (let (($x1111 (= cell_3_8 8)))
 (let (($x265 (= cell_3_8 7)))
 (let (($x7756 (= cell_3_8 6)))
 (let (($x1788 (= cell_3_8 5)))
 (let (($x554 (= cell_3_8 4)))
 (let (($x864 (= cell_3_8 3)))
 (let (($x3806 (= cell_3_8 2)))
 (let (($x7800 (= cell_3_8 1)))
 (or $x7800 $x3806 $x864 $x554 $x1788 $x7756 $x265 $x1111 $x3380)))))))))))
(assert
 (let (($x1958 (= cell_4_8 9)))
 (let (($x3719 (= cell_4_8 8)))
 (let (($x2962 (= cell_4_8 7)))
 (let (($x870 (= cell_4_8 6)))
 (let (($x2773 (= cell_4_8 5)))
 (let (($x1876 (= cell_4_8 4)))
 (let (($x6700 (= cell_4_8 3)))
 (let (($x1679 (= cell_4_8 2)))
 (let (($x2461 (= cell_4_8 1)))
 (or $x2461 $x1679 $x6700 $x1876 $x2773 $x870 $x2962 $x3719 $x1958)))))))))))
(assert
 (let (($x2835 (= cell_5_8 2)))
 (or (= cell_5_8 1) $x2835 (= cell_5_8 3) (= cell_5_8 4) (= cell_5_8 5) (= cell_5_8 6) (= cell_5_8 7) (= cell_5_8 8) (= cell_5_8 9))))
(assert
 (let (($x552 (= cell_6_8 9)))
 (let (($x2661 (= cell_6_8 8)))
 (let (($x76 (= cell_6_8 7)))
 (let (($x471 (= cell_6_8 6)))
 (let (($x1554 (= cell_6_8 5)))
 (let (($x4150 (= cell_6_8 4)))
 (let (($x7980 (= cell_6_8 3)))
 (let (($x3278 (= cell_6_8 2)))
 (let (($x705 (= cell_6_8 1)))
 (or $x705 $x3278 $x7980 $x4150 $x1554 $x471 $x76 $x2661 $x552)))))))))))
(assert
 (let (($x3646 (= cell_7_8 9)))
 (let (($x3799 (= cell_7_8 8)))
 (let (($x2289 (= cell_7_8 7)))
 (let (($x900 (= cell_7_8 6)))
 (let (($x100 (= cell_7_8 5)))
 (let (($x169 (= cell_7_8 4)))
 (let (($x1764 (= cell_7_8 3)))
 (let (($x493 (= cell_7_8 2)))
 (let (($x312 (= cell_7_8 1)))
 (or $x312 $x493 $x1764 $x169 $x100 $x900 $x2289 $x3799 $x3646)))))))))))
(assert
 (let (($x2097 (= cell_8_8 1)))
 (or $x2097 (= cell_8_8 2) (= cell_8_8 3) (= cell_8_8 4) (= cell_8_8 5) (= cell_8_8 6) (= cell_8_8 7) (= cell_8_8 8) (= cell_8_8 9))))
(assert
 (let (($x3730 (= cell_9_8 2)))
 (let (($x3359 (= cell_9_8 1)))
 (or $x3359 $x3730 (= cell_9_8 3) (= cell_9_8 4) (= cell_9_8 5) (= cell_9_8 6) (= cell_9_8 7) (= cell_9_8 8) (= cell_9_8 9)))))
(assert
 (let (($x846 (= cell_1_9 1)))
 (or $x846 (= cell_1_9 2) (= cell_1_9 3) (= cell_1_9 4) (= cell_1_9 5) (= cell_1_9 6) (= cell_1_9 7) (= cell_1_9 8) (= cell_1_9 9))))
(assert
 (let (($x2920 (= cell_2_9 9)))
 (let (($x2898 (= cell_2_9 8)))
 (let (($x3810 (= cell_2_9 7)))
 (let (($x352 (= cell_2_9 6)))
 (let (($x4180 (= cell_2_9 5)))
 (let (($x1060 (= cell_2_9 4)))
 (let (($x3792 (= cell_2_9 3)))
 (let (($x2391 (= cell_2_9 2)))
 (let (($x2346 (= cell_2_9 1)))
 (or $x2346 $x2391 $x3792 $x1060 $x4180 $x352 $x3810 $x2898 $x2920)))))))))))
(assert
 (let (($x3857 (= cell_3_9 2)))
 (or (= cell_3_9 1) $x3857 (= cell_3_9 3) (= cell_3_9 4) (= cell_3_9 5) (= cell_3_9 6) (= cell_3_9 7) (= cell_3_9 8) (= cell_3_9 9))))
(assert
 (let (($x1763 (= cell_4_9 9)))
 (let (($x1974 (= cell_4_9 8)))
 (let (($x1082 (= cell_4_9 7)))
 (let (($x3541 (= cell_4_9 6)))
 (let (($x2882 (= cell_4_9 5)))
 (let (($x2837 (= cell_4_9 4)))
 (let (($x813 (= cell_4_9 3)))
 (let (($x2372 (= cell_4_9 2)))
 (let (($x28 (= cell_4_9 1)))
 (or $x28 $x2372 $x813 $x2837 $x2882 $x3541 $x1082 $x1974 $x1763)))))))))))
(assert
 (let (($x1985 (= cell_5_9 9)))
 (let (($x211 (= cell_5_9 8)))
 (let (($x1167 (= cell_5_9 7)))
 (let (($x1214 (= cell_5_9 6)))
 (let (($x3809 (= cell_5_9 5)))
 (let (($x2470 (= cell_5_9 4)))
 (let (($x8002 (= cell_5_9 3)))
 (let (($x1525 (= cell_5_9 2)))
 (let (($x254 (= cell_5_9 1)))
 (or $x254 $x1525 $x8002 $x2470 $x3809 $x1214 $x1167 $x211 $x1985)))))))))))
(assert
 (let (($x993 (= cell_6_9 2)))
 (let (($x7866 (= cell_6_9 1)))
 (or $x7866 $x993 (= cell_6_9 3) (= cell_6_9 4) (= cell_6_9 5) (= cell_6_9 6) (= cell_6_9 7) (= cell_6_9 8) (= cell_6_9 9)))))
(assert
 (let (($x927 (= cell_7_9 9)))
 (let (($x2672 (= cell_7_9 8)))
 (let (($x631 (= cell_7_9 7)))
 (let (($x2779 (= cell_7_9 6)))
 (let (($x1247 (= cell_7_9 5)))
 (let (($x1234 (= cell_7_9 4)))
 (let (($x3926 (= cell_7_9 3)))
 (let (($x2737 (= cell_7_9 2)))
 (let (($x629 (= cell_7_9 1)))
 (or $x629 $x2737 $x3926 $x1234 $x1247 $x2779 $x631 $x2672 $x927)))))))))))
(assert
 (let (($x3399 (= cell_8_9 2)))
 (let (($x1001 (= cell_8_9 1)))
 (or $x1001 $x3399 (= cell_8_9 3) (= cell_8_9 4) (= cell_8_9 5) (= cell_8_9 6) (= cell_8_9 7) (= cell_8_9 8) (= cell_8_9 9)))))
(assert
 (let (($x1503 (= cell_9_9 2)))
 (let (($x1520 (= cell_9_9 1)))
 (or $x1520 $x1503 (= cell_9_9 3) (= cell_9_9 4) (= cell_9_9 5) (= cell_9_9 6) (= cell_9_9 7) (= cell_9_9 8) (= cell_9_9 9)))))
(assert
 (and (distinct cell_1_1 cell_1_2 cell_1_3 cell_1_4 cell_1_5 cell_1_6 cell_1_7 cell_1_8 cell_1_9) true))
(assert
 (and (distinct cell_2_1 cell_2_2 cell_2_3 cell_2_4 cell_2_5 cell_2_6 cell_2_7 cell_2_8 cell_2_9) true))
(assert
 (and (distinct cell_3_1 cell_3_2 cell_3_3 cell_3_4 cell_3_5 cell_3_6 cell_3_7 cell_3_8 cell_3_9) true))
(assert
 (and (distinct cell_4_1 cell_4_2 cell_4_3 cell_4_4 cell_4_5 cell_4_6 cell_4_7 cell_4_8 cell_4_9) true))
(assert
 (and (distinct cell_5_1 cell_5_2 cell_5_3 cell_5_4 cell_5_5 cell_5_6 cell_5_7 cell_5_8 cell_5_9) true))
(assert
 (and (distinct cell_6_1 cell_6_2 cell_6_3 cell_6_4 cell_6_5 cell_6_6 cell_6_7 cell_6_8 cell_6_9) true))
(assert
 (and (distinct cell_7_1 cell_7_2 cell_7_3 cell_7_4 cell_7_5 cell_7_6 cell_7_7 cell_7_8 cell_7_9) true))
(assert
 (and (distinct cell_8_1 cell_8_2 cell_8_3 cell_8_4 cell_8_5 cell_8_6 cell_8_7 cell_8_8 cell_8_9) true))
(assert
 (and (distinct cell_9_1 cell_9_2 cell_9_3 cell_9_4 cell_9_5 cell_9_6 cell_9_7 cell_9_8 cell_9_9) true))
(assert
 (and (distinct cell_1_1 cell_2_1 cell_3_1 cell_4_1 cell_5_1 cell_6_1 cell_7_1 cell_8_1 cell_9_1) true))
(assert
 (and (distinct cell_1_2 cell_2_2 cell_3_2 cell_4_2 cell_5_2 cell_6_2 cell_7_2 cell_8_2 cell_9_2) true))
(assert
 (and (distinct cell_1_3 cell_2_3 cell_3_3 cell_4_3 cell_5_3 cell_6_3 cell_7_3 cell_8_3 cell_9_3) true))
(assert
 (and (distinct cell_1_4 cell_2_4 cell_3_4 cell_4_4 cell_5_4 cell_6_4 cell_7_4 cell_8_4 cell_9_4) true))
(assert
 (and (distinct cell_1_5 cell_2_5 cell_3_5 cell_4_5 cell_5_5 cell_6_5 cell_7_5 cell_8_5 cell_9_5) true))
(assert
 (and (distinct cell_1_6 cell_2_6 cell_3_6 cell_4_6 cell_5_6 cell_6_6 cell_7_6 cell_8_6 cell_9_6) true))
(assert
 (and (distinct cell_1_7 cell_2_7 cell_3_7 cell_4_7 cell_5_7 cell_6_7 cell_7_7 cell_8_7 cell_9_7) true))
(assert
 (and (distinct cell_1_8 cell_2_8 cell_3_8 cell_4_8 cell_5_8 cell_6_8 cell_7_8 cell_8_8 cell_9_8) true))
(assert
 (and (distinct cell_1_9 cell_2_9 cell_3_9 cell_4_9 cell_5_9 cell_6_9 cell_7_9 cell_8_9 cell_9_9) true))
(assert
 (and (distinct cell_1_1 cell_1_2 cell_1_3 cell_2_1 cell_2_2 cell_2_3 cell_3_1 cell_3_2 cell_3_3) true))
(assert
 (and (distinct cell_1_4 cell_1_5 cell_1_6 cell_2_4 cell_2_5 cell_2_6 cell_3_4 cell_3_5 cell_3_6) true))
(assert
 (and (distinct cell_1_7 cell_1_8 cell_1_9 cell_2_7 cell_2_8 cell_2_9 cell_3_7 cell_3_8 cell_3_9) true))
(assert
 (and (distinct cell_4_1 cell_4_2 cell_4_3 cell_5_1 cell_5_2 cell_5_3 cell_6_1 cell_6_2 cell_6_3) true))
(assert
 (and (distinct cell_4_4 cell_4_5 cell_4_6 cell_5_4 cell_5_5 cell_5_6 cell_6_4 cell_6_5 cell_6_6) true))
(assert
 (and (distinct cell_4_7 cell_4_8 cell_4_9 cell_5_7 cell_5_8 cell_5_9 cell_6_7 cell_6_8 cell_6_9) true))
(assert
 (and (distinct cell_7_1 cell_7_2 cell_7_3 cell_8_1 cell_8_2 cell_8_3 cell_9_1 cell_9_2 cell_9_3) true))
(assert
 (and (distinct cell_7_4 cell_7_5 cell_7_6 cell_8_4 cell_8_5 cell_8_6 cell_9_4 cell_9_5 cell_9_6) true))
(assert
 (and (distinct cell_7_7 cell_7_8 cell_7_9 cell_8_7 cell_8_8 cell_8_9 cell_9_7 cell_9_8 cell_9_9) true))
(assert
 (let (($x564 (and (distinct cell_5_9 cell_6_8 cell_7_7 cell_8_6) true)))
 (let (($x2581 (and (distinct cell_2_9 cell_3_8 cell_4_7 cell_5_6 cell_6_5 cell_7_4 cell_8_3 cell_9_2) true)))
 (let (($x3919 (and (distinct cell_1_8 cell_2_7 cell_3_6 cell_4_5 cell_5_4 cell_6_3 cell_7_2 cell_8_1) true)))
 (let (($x2573 (and (distinct cell_1_5 cell_2_4 cell_3_3 cell_4_2) true)))
 (let (($x3043 (and (distinct cell_5_1 cell_6_2 cell_7_3 cell_8_4) true)))
 (let (($x2057 (and (distinct cell_2_1 cell_3_2 cell_4_3 cell_5_4 cell_6_5 cell_7_6 cell_8_7 cell_9_8) true)))
 (let (($x1844 (and (distinct cell_1_2 cell_2_3 cell_3_4 cell_4_5 cell_5_6 cell_6_7 cell_7_8 cell_8_9) true)))
 (let (($x3981 (and (distinct cell_1_5 cell_2_6 cell_3_7 cell_4_8) true)))
 (and $x3981 $x1844 $x2057 $x3043 $x2573 $x3919 $x2581 $x564))))))))))
(assert
 (= cell_9_1 2))
(check-sat)
